Test: fpga10_12_uns_rcr.cnf
Options: -no-inverting-opt -activity-look-freq=1
WARNING: for repeatability, setting FPU to use double precision
============================[ Problem Statistics ]=============================
|                                                                             |
|  Number of symmetries:           41                                         |
|  Number of invertingSyms:         0                                         |
|  Number of variables:           240                                         |
|  Number of clauses:            1344                                         |
|  Parse time:                   0.00 s                                       |
|                                                                             |
============================[ Search Statistics ]==============================
| Conflicts |          ORIGINAL         |          LEARNT          | Progress |
|           |    Vars  Clauses Literals |    Limit  Clauses Lit/Cl |          |
===============================================================================
|       100 |     240     1344     2880 |      492      125     49 |  0.002 % |
|       250 |     240     1344     2880 |      542      374     41 |  0.002 % |
|       475 |     240     1344     2880 |      596      488     35 |  0.002 % |
|       812 |     240     1344     2880 |      655      405     32 |  0.002 % |
|      1318 |     240     1344     2880 |      721      462     29 |  0.002 % |
|      2077 |     240     1344     2880 |      793      664     33 |  0.002 % |
|      3216 |     240     1344     2880 |      873      572     33 |  0.002 % |
|      4924 |     240     1344     2880 |      960      910     37 |  0.021 % |
|      7486 |     240     1344     2880 |     1056      582     28 |  0.002 % |
===============================================================================
restarts              : 46
conflicts             : 10579          (32649 /sec)
symconflicts          : 1834           (5660 /sec)
decisions             : 18444          (0.00 % random) (56922 /sec)
propagations          : 551895         (1703274 /sec)
sympropagations       : 9883           (30501 /sec)
conflict literals     : 417443         (6.32 % deleted)
literals     : 417443         (6.32 % deleted)

HEURISTIC USAGES
random                : 0           
activity w/ lookahead : 18444       
activity no lookahead : 0           
original sp           : 0           
sym count             : 0           

Memory used           : 6.00 MB
CPU time              : 0.32402 s

UNSATISFIABLE
